NAME : 1.82734.tour
COMMENT : Length = 82734
COMMENT : Found by LKH-3 [Keld Helsgaun] Tue Apr  9 01:51:54 2024
TYPE : TOUR
DIMENSION : 108
TOUR_SECTION
1
28
32
11
33
91
64
65
50
20
12
63
89
105
13
81
69
25
30
35
79
80
4
78
77
29
103
90
19
84
61
6
85
18
46
9
47
37
48
49
83
8
53
106
95
96
98
93
99
38
101
92
86
94
60
97
102
7
100
62
17
87
39
45
15
44
43
88
14
107
55
56
26
40
68
24
57
5
27
108
54
41
22
74
73
75
76
23
42
16
58
3
59
104
51
34
82
52
10
36
72
66
67
21
31
71
2
70
-1
EOF
